NAME 
ROWS
 N  OBJ
 L  R0      
 L  R1      
 L  R2      
 L  R3      
 L  R4      
 L  R5      
 L  R6      
 L  R7      
 L  R8      
 L  R9      
COLUMNS
    MARKER    'MARKER'                 'INTORG'
    x[0]      OBJ       7
    x[0]      R0        -3
    x[0]      R1        4
    x[0]      R2        6
    x[0]      R3        -8
    x[0]      R4        1
    x[0]      R7        -1
    x[0]      R8        1
    x[0]      R9        1
    x[1]      OBJ       9
    x[1]      R0        9
    x[1]      R2        5
    x[1]      R3        2
    x[1]      R4        10
    x[1]      R7        1
    x[1]      R9        -1
    x[2]      OBJ       5
    x[2]      R0        -9
    x[2]      R1        5
    x[2]      R3        -10
    x[2]      R4        4
    x[2]      R6        -1
    x[2]      R7        1
    x[2]      R9        -1
    x[3]      OBJ       7
    x[3]      R0        -3
    x[3]      R1        8
    x[3]      R2        10
    x[3]      R3        -9
    x[3]      R4        -1
    x[3]      R6        1
    x[3]      R8        -1
    x[4]      OBJ       -3
    x[4]      R0        -7
    x[4]      R1        -7
    x[4]      R2        -8
    x[4]      R3        -8
    x[4]      R5        1
    x[4]      R6        1
    x[4]      R7        1
    x[5]      OBJ       -3
    x[5]      R0        -3
    x[5]      R1        -7
    x[5]      R2        3
    x[5]      R3        3
    x[5]      R4        -7
    x[5]      R8        -1
    x[6]      OBJ       -10
    x[6]      R0        -1
    x[6]      R1        -3
    x[6]      R2        5
    x[6]      R3        1
    x[6]      R4        7
    x[6]      R5        -1
    x[6]      R6        -1
    x[6]      R7        1
    x[7]      OBJ       -8
    x[7]      R0        9
    x[7]      R2        -2
    x[7]      R3        9
    x[7]      R4        5
    x[7]      R5        -1
    x[7]      R6        1
    x[8]      OBJ       9
    x[8]      R0        -2
    x[8]      R2        -7
    x[8]      R3        1
    x[8]      R4        -7
    x[8]      R5        1
    x[8]      R6        -1
    x[8]      R8        1
    x[8]      R9        1
    x[9]      OBJ       -6
    x[9]      R0        -3
    x[9]      R1        -2
    x[9]      R2        10
    x[9]      R3        -1
    x[9]      R4        5
    x[9]      R6        1
    x[9]      R9        1
    y[0]      OBJ       -10
    y[0]      R0        -6
    y[0]      R1        2
    y[0]      R2        6
    y[0]      R3        5
    y[0]      R4        -4
    y[0]      R5        96
    y[0]      R6        -25
    y[0]      R7        -2
    y[0]      R8        -41
    y[0]      R9        -95
    y[1]      OBJ       -6
    y[1]      R0        3
    y[1]      R1        8
    y[1]      R2        5
    y[1]      R3        3
    y[1]      R5        -77
    y[1]      R6        -98
    y[1]      R7        -26
    y[1]      R8        -6
    y[1]      R9        -10
    y[2]      OBJ       -6
    y[2]      R0        -1
    y[2]      R1        -3
    y[2]      R2        4
    y[2]      R3        -2
    y[2]      R4        -5
    y[2]      R5        74
    y[2]      R6        -4
    y[2]      R7        43
    y[2]      R8        92
    y[2]      R9        -24
    y[3]      OBJ       -6
    y[3]      R0        5
    y[3]      R1        -2
    y[3]      R2        7
    y[3]      R3        -4
    y[3]      R4        10
    y[3]      R5        -61
    y[3]      R6        -10
    y[3]      R7        17
    y[3]      R8        -86
    y[3]      R9        -45
    y[4]      OBJ       -6
    y[4]      R0        4
    y[4]      R1        4
    y[4]      R2        10
    y[4]      R3        5
    y[4]      R4        3
    y[4]      R5        -34
    y[4]      R6        -17
    y[4]      R7        42
    y[4]      R8        -48
    y[4]      R9        -58
    y[5]      OBJ       -8
    y[5]      R0        -10
    y[5]      R1        -8
    y[5]      R2        5
    y[5]      R3        -1
    y[5]      R4        4
    y[5]      R5        -23
    y[5]      R6        54
    y[5]      R7        -44
    y[5]      R8        -56
    y[5]      R9        -80
    y[6]      OBJ       -8
    y[6]      R0        9
    y[6]      R1        -7
    y[6]      R2        -7
    y[6]      R3        4
    y[6]      R4        5
    y[6]      R5        6
    y[6]      R6        54
    y[6]      R7        -99
    y[6]      R8        -84
    y[6]      R9        -12
    y[7]      OBJ       -6
    y[7]      R0        9
    y[7]      R1        6
    y[7]      R2        -1
    y[7]      R3        8
    y[7]      R4        -6
    y[7]      R5        54
    y[7]      R6        15
    y[7]      R7        -24
    y[7]      R8        92
    y[7]      R9        96
    y[8]      OBJ       -7
    y[8]      R0        -9
    y[8]      R2        4
    y[8]      R3        -9
    y[8]      R4        6
    y[8]      R5        -76
    y[8]      R6        80
    y[8]      R7        46
    y[8]      R8        9
    y[8]      R9        -82
    y[9]      OBJ       -10
    y[9]      R0        -2
    y[9]      R1        -6
    y[9]      R2        10
    y[9]      R3        -4
    y[9]      R4        9
    y[9]      R5        27
    y[9]      R6        -45
    y[9]      R7        -38
    y[9]      R8        9
    y[9]      R9        -8
    MARKER    'MARKER'                 'INTEND'
RHS
    RHS1      R0        -2.75
    RHS1      R1        -2
    RHS1      R2        16.25
    RHS1      R3        -3.75
    RHS1      R4        9.75
    RHS1      R5        -4
    RHS1      R6        1
    RHS1      R7        -20
    RHS1      R8        -30
    RHS1      R9        -79
BOUNDS
 BV BND1      x[0]    
 BV BND1      x[1]    
 BV BND1      x[2]    
 BV BND1      x[3]    
 BV BND1      x[4]    
 BV BND1      x[5]    
 BV BND1      x[6]    
 BV BND1      x[7]    
 BV BND1      x[8]    
 BV BND1      x[9]    
 BV BND1      y[0]    
 BV BND1      y[1]    
 BV BND1      y[2]    
 BV BND1      y[3]    
 BV BND1      y[4]    
 BV BND1      y[5]    
 BV BND1      y[6]    
 BV BND1      y[7]    
 BV BND1      y[8]    
 BV BND1      y[9]    
ENDATA
